50
4917

406 557
922 287
360 405
705 895
427 198
842 502
590 339
239 655
966 262
837 483
983 788
833 127
893 530
762 852
448 324
169 402
730 204
421 408
834 579
668 72
556 861
33 48
561 773
183 79
385 789
273 687
652 314
565 130
284 692
162 572
564 825
865 396
981 469
601 419
263 868
987 452
49 635
217 137
47 423
889 502
679 564
77 760
907 578
598 442
91 939
233 490
809 728
815 72
651 618
34 746
